p ocr 720 741 1310
1 721
1 722
2 721
3 721
3 723
4 721
5 722
5 723
5 724
6 723
6 724
6 727
7 724
7 725
7 728
7 729
8 727
8 731
10 728
10 733
11 732
11 733
12 733
12 737
13 732
13 733
13 734
13 735
14 734
14 735
14 738
16 737
16 738
16 740
16 741
18 738
18 742
19 741
19 742
21 740
21 742
23 742
23 747
24 743
24 746
25 743
25 746
26 746
26 747
26 748
26 751
28 747
28 748
28 749
28 750
29 749
29 753
30 750
30 756
31 751
31 753
31 755
32 755
32 757
35 755
35 756
35 757
36 758
38 758
39 758
40 758
40 759
41 758
41 759
42 758
43 759
43 760
44 759
44 762
44 764
45 762
45 763
45 766
46 766
47 765
47 766
47 767
48 767
50 767
51 768
52 769
53 767
53 770
54 769
54 772
54 773
54 774
54 775
54 777
56 777
56 778
57 776
57 777
58 778
58 779
58 780
58 781
60 783
60 784
60 790
61 788
62 786
62 791
63 789
63 793
64 790
64 792
66 791
66 793
66 794
66 795
67 793
67 795
68 794
68 795
69 795
69 797
70 795
70 798
71 795
71 796
73 796
73 801
74 797
74 806
75 800
75 801
75 803
75 804
76 805
76 806
76 807
76 809
77 803
77 808
78 808
78 811
80 807
80 810
81 809
81 810
81 811
81 814
82 815
82 817
83 817
83 819
84 815
84 816
84 821
85 821
86 819
86 820
87 821
87 822
88 820
88 821
89 823
90 825
91 822
91 823
91 825
91 826
91 827
91 829
92 827
92 830
93 827
93 831
94 830
94 832
95 829
95 831
96 832
96 833
99 831
99 833
100 831
101 834
102 834
102 835
103 834
103 835
104 836
105 834
105 835
105 837
108 839
109 837
111 837
111 839
112 837
112 840
112 841
112 842
113 840
113 841
114 841
114 844
115 841
115 843
116 842
116 843
118 843
119 844
119 846
119 847
121 845
121 847
121 850
122 846
122 849
122 850
124 850
125 850
127 849
127 852
127 853
127 854
128 853
128 854
129 852
129 854
130 854
130 855
130 857
133 856
134 854
134 856
135 857
135 858
137 856
137 858
138 857
138 858
140 858
140 859
141 858
141 859
143 858
143 859
143 860
144 859
144 860
145 860
145 861
146 860
146 862
148 860
148 861
148 862
148 863
148 864
148 865
150 863
150 864
150 865
150 867
150 868
151 867
153 868
153 870
155 868
156 869
156 873
157 870
157 874
158 873
159 873
159 874
160 874
160 877
162 873
162 878
163 874
163 875
164 875
165 877
165 878
165 880
166 879
166 880
167 879
167 880
167 882
167 883
170 881
170 882
170 884
170 885
171 883
172 885
173 884
174 885
174 887
174 888
175 885
175 887
176 887
176 888
176 889
176 890
176 892
176 893
177 891
177 892
177 893
177 896
178 893
178 895
180 893
180 897
181 895
181 896
181 897
181 898
184 898
184 902
185 898
185 899
185 901
185 903
186 901
186 903
186 907
187 903
187 905
187 906
188 905
188 907
188 908
189 906
189 908
189 909
190 908
190 911
191 908
191 910
191 914
192 912
192 915
193 915
193 917
195 913
195 917
196 914
196 916
197 916
197 917
198 917
198 919
199 918
199 919
200 918
200 919
201 919
201 921
202 921
202 923
203 919
203 920
203 922
203 923
204 923
204 926
206 922
206 923
206 928
207 926
208 926
208 927
208 928
208 930
209 928
209 931
210 932
210 934
213 931
213 932
214 932
214 933
214 935
214 936
217 934
217 935
217 936
217 937
218 937
218 939
219 937
220 937
221 939
221 940
222 939
222 940
223 940
223 941
224 940
224 943
225 940
225 941
226 943
227 945
229 943
229 944
229 945
229 946
230 945
230 948
230 949
230 950
231 947
232 949
233 950
233 951
234 950
234 952
235 950
235 951
236 951
236 953
237 952
237 953
237 957
238 956
239 951
239 954
241 956
241 958
242 957
242 959
243 955
243 958
247 958
248 962
249 960
249 961
250 959
250 961
250 963
251 964
252 963
252 964
253 964
253 965
254 963
254 964
254 965
254 966
254 967
255 967
256 967
257 969
258 967
258 971
260 967
260 972
261 969
261 972
262 972
263 973
264 971
264 974
265 972
266 974
267 973
267 974
267 975
267 976
267 977
268 975
268 976
268 978
268 979
269 977
269 981
270 981
270 982
271 978
271 981
271 982
271 983
272 982
272 984
273 982
273 984
275 983
275 985
276 984
276 985
278 984
278 985
278 986
279 986
280 986
280 987
281 985
281 986
281 987
281 988
282 987
282 988
284 988
285 987
285 989
288 988
289 989
289 990
290 989
290 992
291 989
291 994
292 994
292 997
293 994
294 994
297 998
298 997
298 1001
300 1001
301 999
301 1003
304 1001
312 1004
313 1005
316 1005
317 1005
317 1006
317 1007
317 1009
318 1004
318 1007
318 1008
318 1009
320 1010
321 1008
322 1011
322 1012
324 1010
324 1011
325 1011
326 1013
327 1011
327 1013
327 1014
328 1014
328 1015
329 1012
329 1018
330 1014
330 1015
331 1015
331 1016
331 1017
333 1017
333 1018
333 1019
334 1016
334 1019
334 1020
335 1019
335 1024
336 1019
336 1020
336 1022
336 1023
337 1023
337 1024
337 1025
337 1026
337 1027
337 1028
338 1026
338 1027
338 1028
338 1030
339 1030
340 1030
340 1031
340 1033
341 1030
341 1033
342 1033
342 1034
343 1031
343 1033
343 1034
343 1035
345 1034
346 1035
347 1034
347 1036
348 1038
349 1037
351 1036
351 1039
352 1038
352 1041
353 1037
353 1041
354 1039
354 1041
357 1041
358 1042
359 1041
359 1043
360 1041
361 1042
362 1043
362 1044
363 1044
363 1045
364 1043
364 1046
365 1043
365 1045
367 1045
367 1046
368 1047
368 1048
368 1049
369 1049
371 1048
371 1049
372 1049
373 1049
374 1050
374 1051
377 1049
378 1050
379 1051
379 1052
380 1050
380 1052
381 1052
381 1053
382 1051
382 1052
382 1053
382 1054
386 1053
386 1054
387 1054
387 1056
387 1057
388 1053
388 1055
389 1055
390 1057
391 1056
391 1060
392 1057
392 1061
393 1057
393 1060
395 1060
395 1061
395 1063
396 1062
396 1063
396 1064
397 1064
397 1065
398 1061
398 1065
399 1064
399 1065
400 1065
400 1066
400 1068
401 1065
401 1067
402 1066
402 1068
404 1067
404 1068
405 1068
406 1069
407 1069
408 1069
410 1069
411 1069
411 1070
411 1071
412 1069
413 1070
414 1070
415 1072
416 1070
416 1073
417 1071
417 1072
417 1074
417 1077
418 1073
418 1074
418 1075
418 1076
419 1081
419 1083
420 1081
420 1084
421 1081
421 1084
421 1085
422 1083
422 1085
423 1086
423 1088
424 1085
424 1087
426 1086
426 1087
426 1088
426 1090
426 1091
427 1093
428 1090
428 1091
428 1093
428 1095
429 1095
429 1096
429 1098
430 1098
430 1100
431 1097
431 1098
431 1099
432 1099
433 1099
433 1101
433 1102
435 1100
435 1101
435 1104
435 1106
436 1103
436 1104
436 1105
436 1106
437 1105
437 1106
437 1107
437 1108
439 1106
439 1107
439 1108
439 1110
439 1111
439 1112
441 1110
441 1111
441 1116
442 1112
442 1114
442 1116
444 1117
445 1116
446 1116
446 1117
446 1119
446 1120
447 1117
447 1119
449 1120
449 1121
450 1119
451 1119
453 1121
453 1122
453 1124
454 1122
455 1122
455 1125
457 1122
457 1126
458 1124
458 1125
459 1125
459 1126
459 1127
460 1126
460 1128
461 1126
461 1128
462 1127
462 1129
462 1131
463 1130
463 1131
463 1132
464 1131
464 1132
464 1135
465 1132
466 1134
467 1133
467 1136
468 1134
468 1137
469 1137
469 1139
470 1135
470 1136
470 1138
470 1139
471 1138
471 1139
471 1140
471 1143
472 1139
472 1140
472 1141
472 1143
473 1141
473 1143
473 1144
473 1145
474 1144
474 1146
474 1148
475 1144
475 1147
476 1147
477 1148
477 1149
477 1150
477 1151
479 1150
480 1149
480 1151
480 1152
480 1153
480 1155
481 1153
481 1154
482 1152
482 1154
482 1155
482 1157
483 1155
483 1156
483 1159
484 1156
484 1160
485 1160
485 1165
485 1166
485 1167
486 1164
486 1166
486 1167
487 1167
488 1167
489 1168
490 1168
491 1167
491 1168
492 1168
492 1169
492 1171
493 1171
493 1172
495 1169
495 1171
495 1172
496 1172
498 1172
501 1172
501 1175
501 1176
502 1172
502 1176
503 1175
503 1177
504 1176
504 1177
504 1179
504 1181
505 1179
505 1180
507 1178
507 1180
507 1181
507 1184
508 1181
509 1181
509 1182
509 1184
510 1183
510 1184
510 1185
510 1187
511 1184
511 1187
511 1188
512 1188
512 1189
513 1188
513 1190
514 1187
514 1189
515 1190
515 1192
517 1190
518 1195
519 1191
519 1192
519 1195
520 1193
521 1196
522 1195
522 1196
522 1198
523 1196
523 1197
524 1196
525 1199
526 1197
526 1198
526 1199
526 1200
527 1199
527 1201
528 1200
529 1199
529 1201
529 1204
530 1201
530 1202
530 1205
530 1207
531 1206
531 1210
532 1205
532 1207
532 1209
532 1210
533 1209
534 1211
536 1210
537 1210
537 1212
537 1215
538 1214
539 1214
541 1214
541 1215
541 1217
542 1215
542 1216
542 1217
543 1219
543 1220
544 1216
544 1217
544 1222
545 1222
546 1222
546 1223
546 1225
547 1220
547 1223
548 1223
548 1224
549 1223
549 1224
549 1225
549 1226
549 1227
549 1229
551 1227
551 1230
552 1228
552 1230
553 1229
553 1230
553 1234
554 1231
555 1230
555 1234
556 1232
556 1236
556 1237
556 1239
557 1235
557 1238
558 1239
558 1240
559 1237
559 1238
559 1241
560 1241
561 1241
561 1244
562 1240
562 1244
563 1241
563 1243
565 1244
565 1245
566 1244
566 1246
567 1243
567 1247
568 1245
570 1247
571 1246
571 1247
571 1249
572 1247
572 1248
572 1249
573 1249
573 1250
574 1249
574 1250
575 1250
575 1251
576 1248
577 1252
578 1250
578 1253
579 1251
580 1252
580 1254
580 1256
582 1256
582 1257
583 1253
584 1257
585 1256
585 1258
585 1259
585 1260
586 1258
586 1259
586 1260
586 1261
586 1262
586 1263
587 1261
587 1262
587 1263
587 1264
587 1265
587 1267
588 1266
588 1267
588 1268
588 1271
589 1264
589 1268
589 1269
589 1271
590 1271
590 1272
593 1270
593 1272
594 1271
594 1272
594 1274
594 1275
594 1276
596 1274
596 1275
596 1277
596 1279
596 1280
596 1282
599 1280
600 1281
600 1283
600 1284
601 1282
601 1284
602 1283
602 1285
603 1284
603 1286
604 1285
605 1286
606 1284
606 1287
608 1287
608 1288
609 1286
609 1287
609 1289
610 1290
611 1288
611 1289
611 1290
611 1291
612 1290
612 1292
613 1290
613 1296
614 1292
614 1294
614 1297
615 1296
615 1297
615 1298
615 1301
616 1297
616 1298
616 1300
616 1303
619 1300
619 1301
619 1303
619 1304
619 1306
619 1307
620 1304
620 1305
621 1305
621 1307
622 1306
622 1307
622 1308
622 1309
622 1310
623 1308
623 1309
623 1310
623 1312
624 1310
624 1312
624 1313
625 1313
625 1314
626 1312
626 1313
626 1315
627 1314
628 1315
629 1315
630 1315
631 1317
632 1315
634 1315
635 1317
635 1318
636 1317
636 1319
636 1320
640 1318
640 1320
640 1321
641 1319
641 1321
642 1321
643 1321
644 1322
644 1323
645 1321
645 1323
645 1324
645 1325
646 1322
646 1324
646 1325
646 1326
646 1327
646 1329
647 1326
647 1327
647 1329
647 1330
648 1329
648 1330
648 1332
649 1331
650 1331
650 1332
651 1330
651 1332
653 1332
653 1333
653 1336
653 1337
654 1333
654 1335
655 1338
655 1343
655 1344
655 1347
656 1341
656 1347
657 1345
658 1348
658 1350
658 1353
659 1348
659 1350
659 1351
659 1353
660 1352
660 1357
661 1354
661 1355
661 1356
663 1356
664 1356
664 1357
665 1357
665 1358
665 1359
666 1356
666 1361
667 1359
667 1360
668 1359
668 1360
669 1361
669 1362
670 1361
670 1362
671 1361
671 1363
673 1362
674 1362
677 1364
678 1363
681 1365
682 1364
683 1364
683 1366
684 1364
685 1368
686 1366
686 1370
687 1366
687 1368
687 1369
687 1370
688 1372
688 1374
689 1369
690 1371
690 1373
690 1375
692 1374
693 1375
694 1373
694 1375
694 1377
694 1379
695 1375
695 1377
696 1378
696 1380
697 1377
697 1382
699 1379
699 1380
699 1384
699 1385
700 1382
700 1383
703 1385
703 1387
704 1384
705 1384
705 1388
705 1390
706 1389
706 1391
706 1392
706 1394
708 1391
708 1396
710 1392
710 1395
711 1394
711 1396
711 1397
711 1398
712 1395
712 1398
712 1399
713 1399
713 1400
714 1398
714 1399
714 1400
715 1400
716 1400
716 1403
716 1404
716 1406
717 1404
717 1409
719 1406
719 1408
720 1410
720 1412